\* LPSolver *\

\* Objective function *\
Minimize
 -2 x3

\* Constraints *\
Subject To
 c1: +x2 -x1 <= 10
 c2: +x3 +x2 +x1 <= 20

\* SOS definitions *\
sos101: +2 x3 +4 x2 = S2
sos102: +1 x3 +1 x2 +1 x1 = S1
sos201: +1.2 x3 +1.3 x2 +1.4 x1 = S2

\* Variable bounds *\
Bounds
 x3 >= 2
 x3 <= 3
 x1 <= 30

End
